NAME: cuum210.tsp
TYPE: TSP
COMMENT: User-generated TSP file
DIMENSION: 210
EDGE_WEIGHT_TYPE: EUC_2D
NODE_COORD_SECTION
1 98.0 181.0
2 19.0 128.0
3 141.0 167.0
4 16.0 122.0
5 182.0 127.0
6 128.0 7.0
7 79.0 178.0
8 48.0 39.0
9 181.0 178.0
10 76.0 47.0
11 120.0 210.0
12 79.0 96.0
13 181.0 62.0
14 54.0 126.0
15 161.0 55.0
16 128.0 196.0
17 124.0 180.0
18 192.0 160.0
19 171.0 142.0
20 52.0 205.0
21 26.0 53.0
22 23.0 66.0
23 24.0 11.0
24 126.0 91.0
25 200.0 64.0
26 54.0 160.0
27 179.0 168.0
28 68.0 70.0
29 93.0 84.0
30 1.0 7.0
31 132.0 142.0
32 60.0 47.0
33 90.0 7.0
34 157.0 67.0
35 164.0 32.0
36 192.0 25.0
37 87.0 135.0
38 8.0 63.0
39 208.0 129.0
40 176.0 85.0
41 137.0 154.0
42 163.0 6.0
43 56.0 122.0
44 172.0 20.0
45 4.0 107.0
46 129.0 96.0
47 188.0 78.0
48 202.0 193.0
49 76.0 177.0
50 74.0 79.0
51 136.0 23.0
52 169.0 170.0
53 46.0 181.0
54 204.0 103.0
55 119.0 87.0
56 32.0 85.0
57 38.0 76.0
58 132.0 22.0
59 1.0 17.0
60 66.0 31.0
61 13.0 99.0
62 124.0 107.0
63 116.0 110.0
64 94.0 165.0
65 17.0 92.0
66 14.0 103.0
67 210.0 12.0
68 161.0 27.0
69 26.0 91.0
70 173.0 170.0
71 188.0 6.0
72 146.0 186.0
73 74.0 174.0
74 91.0 9.0
75 203.0 204.0
76 121.0 178.0
77 102.0 143.0
78 208.0 137.0
79 137.0 131.0
80 170.0 6.0
81 46.0 128.0
82 102.0 134.0
83 20.0 52.0
84 52.0 166.0
85 65.0 193.0
86 100.0 128.0
87 10.0 178.0
88 192.0 83.0
89 177.0 124.0
90 65.0 9.0
91 202.0 107.0
92 73.0 180.0
93 107.0 121.0
94 132.0 185.0
95 32.0 183.0
96 108.0 60.0
97 18.0 136.0
98 10.0 54.0
99 61.0 157.0
100 139.0 138.0
101 53.0 81.0
102 3.0 108.0
103 61.0 130.0
104 116.0 120.0
105 163.0 157.0
106 3.0 118.0
107 57.0 53.0
108 153.0 97.0
109 78.0 193.0
110 6.0 28.0
111 148.0 193.0
112 154.0 25.0
113 208.0 166.0
114 91.0 167.0
115 63.0 77.0
116 25.0 83.0
117 57.0 178.0
118 101.0 198.0
119 147.0 83.0
120 194.0 159.0
121 194.0 100.0
122 141.0 187.0
123 158.0 88.0
124 143.0 108.0
125 83.0 33.0
126 98.0 44.0
127 165.0 142.0
128 210.0 183.0
129 95.0 1.0
130 134.0 26.0
131 74.0 86.0
132 99.0 12.0
133 157.0 47.0
134 46.0 9.0
135 131.0 181.0
136 158.0 79.0
137 123.0 146.0
138 79.0 118.0
139 112.0 155.0
140 69.0 106.0
141 77.0 187.0
142 24.0 117.0
143 182.0 131.0
144 126.0 99.0
145 109.0 35.0
146 100.0 127.0
147 118.0 138.0
148 73.0 134.0
149 109.0 191.0
150 63.0 127.0
151 126.0 119.0
152 172.0 67.0
153 22.0 11.0
154 12.0 27.0
155 193.0 142.0
156 136.0 32.0
157 107.0 101.0
158 58.0 72.0
159 184.0 51.0
160 187.0 75.0
161 136.0 109.0
162 94.0 205.0
163 28.0 22.0
164 22.0 14.0
165 145.0 6.0
166 98.0 184.0
167 95.0 114.0
168 139.0 161.0
169 108.0 101.0
170 152.0 40.0
171 43.0 7.0
172 95.0 175.0
173 58.0 50.0
174 36.0 139.0
175 201.0 55.0
176 83.0 60.0
177 158.0 194.0
178 15.0 191.0
179 107.0 66.0
180 102.0 196.0
181 86.0 151.0
182 42.0 50.0
183 44.0 164.0
184 95.0 162.0
185 172.0 28.0
186 133.0 166.0
187 92.0 199.0
188 111.0 117.0
189 12.0 57.0
190 186.0 196.0
191 18.0 36.0
192 17.0 177.0
193 190.0 22.0
194 39.0 196.0
195 198.0 156.0
196 184.0 113.0
197 103.0 40.0
198 11.0 85.0
199 99.0 58.0
200 94.0 72.0
201 111.0 192.0
202 182.0 78.0
203 103.0 192.0
204 112.0 21.0
205 45.0 14.0
206 81.0 51.0
207 167.0 112.0
208 179.0 68.0
209 94.0 107.0
210 176.0 68.0
EOF





